id: 1935
name: qap15
group: netlib
method: 2

Gurobi 7.0.2 (linux64, Matlab) logging started Mon Mar 26 10:47:13 2018


Gurobi 7.0.2 (linux64) logging started Mon Mar 26 10:47:13 2018

Optimize a model with 6330 rows, 22275 columns and 94950 nonzeros
Coefficient statistics:
  Matrix range     [1e+00, 1e+00]
  Objective range  [2e+00, 1e+02]
  Bounds range     [0e+00, 0e+00]
  RHS range        [1e+00, 1e+00]
Presolve removed 632 rows and 57 columns
Presolve time: 0.17s
Presolved: 5698 rows, 22218 columns, 85413 nonzeros

Ordering time: 0.22s

Barrier statistics:
 AA' NZ     : 1.529e+05
 Factor NZ  : 6.085e+06 (roughly 60 MBytes of memory)
 Factor Ops : 1.041e+10 (less than 1 second per iteration)
 Threads    : 4

                  Objective                Residual
Iter       Primal          Dual         Primal    Dual     Compl     Time
   0   3.48480000e+04  0.00000000e+00  1.50e+00 0.00e+00  1.28e-01     1s
   1   2.22159524e+03 -3.87091008e+02  3.82e-02 1.78e-15  7.85e-03     1s
   2   1.54692061e+03  6.73232054e+02  1.19e-02 1.78e-15  2.14e-03     1s
   3   1.22167414e+03  9.54576503e+02  2.77e-03 1.78e-15  6.45e-04     1s
   4   1.10425426e+03  1.01750312e+03  7.29e-04 1.78e-15  2.14e-04     1s
   5   1.06389883e+03  1.03235029e+03  2.06e-04 1.78e-15  8.01e-05     1s
   6   1.04784277e+03  1.03876560e+03  5.01e-05 1.78e-15  2.34e-05     2s
   7   1.04190474e+03  1.04049377e+03  4.54e-06 1.78e-15  3.77e-06     2s
   8   1.04144428e+03  1.04074191e+03  2.08e-06 1.78e-15  1.89e-06     2s
   9   1.04108186e+03  1.04096114e+03  3.32e-07 1.78e-15  3.25e-07     2s
  10   1.04101614e+03  1.04098749e+03  7.12e-08 1.78e-15  7.75e-08     2s
  11   1.04099626e+03  1.04099303e+03  6.02e-09 1.78e-15  8.82e-09     2s
  12   1.04099461e+03  1.04099378e+03  1.90e-09 1.78e-15  2.26e-09     3s
  13   1.04099430e+03  1.04099398e+03  9.98e-10 1.78e-15  8.82e-10     3s
  14   1.04099408e+03  1.04099404e+03  4.77e-10 1.78e-15  1.26e-10     3s
  15   1.04099405e+03  1.04099404e+03  9.49e-09 1.38e-14  2.79e-11     3s

Barrier solved model in 15 iterations and 2.95 seconds
Optimal objective 1.04099405e+03

Crossover log...

     884 DPushes remaining with DInf 0.0000000e+00                 3s
       0 DPushes remaining with DInf 1.8784439e-11                 3s

    2345 PPushes remaining with PInf 2.2750188e-01                 3s
       0 PPushes remaining with PInf 0.0000000e+00                 4s

  Push phase complete: Pinf 0.0000000e+00, Dinf 4.6622353e-11      4s

Iteration    Objective       Primal Inf.    Dual Inf.      Time
    3232    1.0409940e+03   0.000000e+00   0.000000e+00      4s
    3232    1.0409940e+03   0.000000e+00   0.000000e+00      4s

Solved in 3232 iterations and 4.43 seconds
Optimal objective  1.040994041e+03
status: OPTIMAL
